JulietBench/Juliet_Based_Patch_Bench/qemu/CWE-190-Integer-Overflow-or-Wraparound/CVE_2014_0143_db8a31d11d6a60f48d6817530640d75aa72a9a2f/Resultget_refcount_patch1EQ.smt2
; benchmark generated from python API
(set-info :status unknown)
(declare-fun rdi () (_ BitVec 64))
(declare-fun rsi () (_ BitVec 64))
(declare-fun R () (_ BitVec 32))
(declare-fun rdx () (_ BitVec 64))
(assert
 (let ((?x204 ((_ extract 31 0) rdi)))
 (let ((?x120 (bvnot ?x204)))
 (let ((?x94 ((_ extract 4 0) rsi)))
 (let ((?x95 (bvadd (_ bv31 5) ?x94)))
 (let ((?x107 (concat (_ bv0 59) ?x95)))
 (let ((?x108 (bvshl (_ bv1 64) ?x107)))
 (let ((?x109 ((_ extract 31 0) ?x108)))
 (let ((?x115 (bvadd (_ bv4294967295 32) ?x109)))
 (let ((?x121 (bvnot ?x115)))
 (let ((?x128 (bvor ?x121 ?x120)))
 (let ((?x134 (bvnot ?x128)))
 (let (($x135 (= R ?x134)))
 (let ((?x39 ((_ extract 5 0) rsi)))
 (let ((?x40 (bvadd (_ bv63 6) ?x39)))
 (let ((?x52 (concat (_ bv0 58) ?x40)))
 (let ((?x53 (bvashr rdi ?x52)))
 (let (($x92 (bvult ?x53 rdx)))
 (let (($x90 (and $x92 $x135)))
 (let (($x111 (= (_ bv0 32) R)))
 (let (($x18 (bvuge ?x53 rdx)))
 (let (($x345 (and $x18 $x111)))
 (let (($x83 (or $x345 $x90)))
 (let ((?x55 ((_ extract 31 0) ?x53)))
 (let ((?x44 ((_ sign_extend 32) ?x55)))
 (let (($x34 (bvsle rdx ?x44)))
 (let (($x117 (and $x34 $x111)))
 (let ((?x122 (bvor ?x120 ?x121)))
 (let ((?x123 (bvnot ?x122)))
 (let (($x113 (= R ?x123)))
 (let (($x72 (bvsgt rdx ?x44)))
 (let (($x85 (and $x72 $x113)))
 (let (($x77 (or $x85 $x117)))
 (and $x77 $x83))))))))))))))))))))))))))))))))))
(check-sat)
